(set-logic ALL)
(set-option :produce-models true)
(define-fun-rec str.toLower ((x String)) String
  (ite (= x "")
      ""
      (let ((Head (str.at x 0)))
        (str.++ 
          (ite (and (<= 65 (str.to_code Head)) 
                     (<= (str.to_code Head) 90))
               (str.from_code (+ (str.to_code Head) 32))
               Head)
          (str.toLower (str.substr x 1 (- (str.len x) 1)))))))
(declare-fun sym1019 () String)
(declare-fun sym1668 () String)
(declare-fun sym1877 () String)
(declare-fun sym551 () String)
(declare-fun sym2090 () String)
(declare-fun sym1455 () String)
(declare-fun sym1232 () String)
(declare-fun sym811 () String)
(declare-fun sym2187 () String)
(declare-fun sym209 () String)
(declare-fun sym161 () String)
(define-fun Alphabet () RegLan 
	(re.* (re.union (str.to_re "A") (str.to_re "B") (str.to_re "C") (str.to_re "D") (str.to_re "E") (str.to_re "F") (str.to_re "G") (str.to_re "H") (str.to_re "I") (str.to_re "J") (str.to_re "K") (str.to_re "L") (str.to_re "M") (str.to_re "N") (str.to_re "O") (str.to_re "P") (str.to_re "Q") (str.to_re "R") (str.to_re "S") (str.to_re "T") (str.to_re "U") (str.to_re "V") (str.to_re "W") (str.to_re "X") (str.to_re "Y") (str.to_re "Z") (str.to_re "a") (str.to_re "b") (str.to_re "c") (str.to_re "d") (str.to_re "e") (str.to_re "f") (str.to_re "g") (str.to_re "h") (str.to_re "i") (str.to_re "j") (str.to_re "k") (str.to_re "l") (str.to_re "m") (str.to_re "n") (str.to_re "o") (str.to_re "p") (str.to_re "q") (str.to_re "r") (str.to_re "s") (str.to_re "t") (str.to_re "u") (str.to_re "v") (str.to_re "w") (str.to_re "x") (str.to_re "y") (str.to_re "z") ))
)

(assert (str.in_re sym161 Alphabet))
(assert (str.in_re sym209 Alphabet))
(assert (str.in_re sym2187 Alphabet))
(assert (str.in_re sym811 Alphabet))
(assert (str.in_re sym1232 Alphabet))
(assert (str.in_re sym1455 Alphabet))
(assert (str.in_re sym2090 Alphabet))
(assert (str.in_re sym551 Alphabet))
(assert (str.in_re sym1877 Alphabet))
(assert (str.in_re sym1668 Alphabet))
(assert (str.in_re sym1019 Alphabet))(assert (<= 1 (str.len sym811 )))
(assert (<= 1 (str.len sym1232 )))
(assert (<= 1 (str.len sym2187 )))
(assert (<= 1 (str.len sym551 )))
(assert (<= 1 (str.len sym1668 )))
(assert (<= 1 (str.len sym1877 )))
(assert (<= 1 (str.len sym2090 )))
(assert (<= 1 (str.len sym1455 )))
(assert (<= 1 (str.len sym209 )))
(assert (<= 1 (str.len sym1019 )))

(assert (= (str.toLower (str.substr sym209  0 1))"y" ))
(assert (not (= "" "y" )))
(assert (not (= (str.toLower (str.substr sym1019  0 1))"q" )))
(assert (= (str.toLower (str.substr sym551  0 1))"k" ))
(assert (= (str.toLower (str.substr sym2090  0 1))"g" ))
(assert (not (= "" sym1455 )))
(assert (not (= "" sym1019 )))
(assert (not (= "" sym1232 )))
(assert (not (= "" sym2187 )))
(assert (not (= (str.toLower (str.substr sym1668  0 1))"p" )))
(assert (not (= "" sym1668 )))
(assert (not (= "" "q" )))
(assert (= "" sym161 ))
(assert (not (= (str.toLower (str.substr sym2090  0 1))"k" )))
(assert (not (= (str.toLower (str.substr sym2187  0 1))"y" )))
(assert (not (= "" (str.toLower (str.substr sym2187  0 1)))))
(assert (not (= (str.toLower (str.substr sym1668  0 1))"q" )))
(assert (not (= (str.toLower (str.substr sym551  0 1))"p" )))
(assert (not (= (str.toLower (str.substr sym811  0 1))"k" )))
(assert (not (= (str.toLower (str.substr sym811  0 1))"p" )))
(assert (not (= (str.toLower (str.substr sym811  0 1))"q" )))
(assert (not (= "" sym209 )))
(assert (not (= (str.toLower (str.substr sym1232  0 1))"q" )))
(assert (= "" "" ))
(assert (not (= "" sym551 )))
(assert (= (str.toLower (str.substr sym811  0 1))"g" ))
(assert (not (= (str.toLower (str.substr sym1232  0 1))"k" )))
(assert (= "y" "y" ))
(assert (not (= (str.toLower (str.substr sym551  0 1))"q" )))
(assert (not (= (str.toLower (str.substr sym1455  0 1))"p" )))
(assert (not (= (str.toLower (str.substr sym1455  0 1))"q" )))
(assert (not (= "" "y" )))
(assert (not (= (str.toLower (str.substr sym1668  0 1))"k" )))
(assert (= (str.toLower (str.substr sym1455  0 1))"k" ))
(assert (= (str.toLower (str.substr sym1877  0 1))"k" ))
(assert (= (str.toLower (str.substr sym1232  0 1))"g" ))
(assert (not (= "" sym811 )))
(assert (not (= "" sym2090 )))
(assert (not (= (str.toLower (str.substr sym1232  0 1))"p" )))
(assert (not (= (str.toLower (str.substr sym2090  0 1))"q" )))
(assert (= (str.toLower (str.substr sym1019  0 1))"k" ))
(assert (not (= (str.toLower (str.substr sym1877  0 1))"p" )))
(assert (not (= (str.toLower (str.substr sym2090  0 1))"p" )))
(assert (not (= "" (str.toLower (str.substr sym209  0 1)))))
(assert (not (= "" sym1877 )))
(assert (not (= "n" "y" )))
(assert (not (= "y" "n" )))
(assert (not (= "" "n" )))
(assert (not (= (str.toLower (str.substr sym1019  0 1))"p" )))
(assert (= (str.toLower (str.substr sym1668  0 1))"g" ))
(assert (not (= (str.toLower (str.substr sym1877  0 1))"q" )))
(check-sat)
(get-model)
(exit)
